NAME: R12-110518-185431.tsp
TYPE: TSP
COMMENT: Random data
DIMENSION: 12
EDGE_WEIGHT_TYPE: EXPLICIT
EDGE_WEIGHT_FORMAT: FULL_MATRIX
DISPLAY_DATA_TYPE: NO_DISPLAY
EDGE_WEIGHT_SECTION
 0 95 72 91 51 13 82 87 37 95 84  7 
91  0 70 33 14 47 37 65 95 41 21 78 
51 17  0 91 42 45 75 47 80 93 61 54 
77  6 61  0 90 62 29 52 32 10 94 62 
27 88 60 83  0 15 39 42 19 74 92 65 
16 21 73 60 70  0 37 11 89 15 90 46 
36 93 26 53 57 75  0 35 42  8 10 84 
88 90  2 81 62 60  8  0 37 74 86 62 
11 89 40 16  2 58 15 21  0 21 78 71 
80 52 67 56 62 82 66 83 31  0 84 55 
32 32 83 57 88 74 51 81 77 16  0 60 
74 82 37 13 41 72 77 27 87 89  5  0 
EOF